4 5 1.7
3 1 1 147 2 4 140 2 130 2 4 150 5 160 
3 2 1 214 3 150 2 3 87 2 66 1 5 178 
3 2 1 87 2 62 1 3 180 2 4 190 5 100 
3 2 1 87 2 65 1 5 173 2 4 145 3 136 
1 162 62 279 
1 104 27 135 
1 81 57 310 
1 94 75 238 
1 123 159 322 
